CUST NO.,XCOORD.,YCOORD.,DEMAND,READY TIME,DUE DATE,SERVICE TIME
0,40,50,0,0,1236,0
1,45,68,10,830,1049,90
2,45,70,30,756,939,90
3,42,66,10,16,336,90
4,42,68,10,643,866,90
5,42,65,10,15,226,90
6,40,69,20,499,824,90
7,40,66,20,87,308,90
8,38,68,-20,150,429,90
9,38,70,-10,429,710,90
10,35,66,-10,279,488,90
